(set-logic HORN)
(declare-fun state (Int Int Int (Array Int Int) Int Int Int Bool Bool Bool Int Int Bool Bool Bool Bool Bool Int Int Int Int) Bool)
(assert (forall ((|main@%tmp8.i_0_5| Int) (|.y.11| Int) (|.y.12| Int) (|main@%shadow.mem.0_0_5| (Array Int Int)) (|main@%largest.0.i_0_3| Int) (|main@%x.0.i_0_1| Int) (|main@%tmp2.i_0_5| Int) (|.loc.13| Bool) (|.loc.14| Bool) (|.loc.15| Bool) (|main@%tmp37.i_0| Int) (|main@%tmp32.i_0| Int) (|main@bb35.i_0| Bool) (|main@bb27.i_0| Bool) (|main@bb23.i_0_0| Bool) (|main@%tmp34.i_0| Bool) (|tuple(main@bb27.i_0, main@bb40.i_0)| Bool) (|main@%largest.1.i_0| Int) (|main@%tmp38.i_0| Int) (|main@%largest.1.i_1| Int) (|main@%tmp52.i_0_0| Int) (|.loc.25| Bool) (|.loc.23| Bool) (|.loc.24| Bool) (|.y.20| Int) (|.y.21| Int) (|.y.16| Int) (|.y.19| (Array Int Int)) (|.y.22| Int) (|.y.17| Int) (|.y.18| Int) (|.xtv.1| Int) (|.xtv.2| Int) (|.xtv.3| Bool) (|.xtv.4| Bool) (|.xtv.5| Bool) (|.xtv.6| Bool) (|.xtv.7| Bool) (|.xtv.8| Int) (|.xtv.9| Int) (|.xtv.10| Int) (|.xtv.11| Int)) (=> (and (and (not .loc.13) (not .loc.14)) (not .loc.15)) (state |main@%tmp8.i_0_5| |.y.11| |.y.12| |main@%shadow.mem.0_0_5| |main@%largest.0.i_0_3| |main@%x.0.i_0_1| |main@%tmp2.i_0_5| |.loc.13| |.loc.14| |.loc.15| |main@%tmp37.i_0| |main@%tmp32.i_0| |main@bb35.i_0| |main@bb27.i_0| |main@bb23.i_0_0| |main@%tmp34.i_0| |tuple(main@bb27.i_0, main@bb40.i_0)| |main@%largest.1.i_0| |main@%tmp38.i_0| |main@%largest.1.i_1| |main@%tmp52.i_0_0|))))
(assert (forall ((|main@%tmp8.i_0_5| Int) (|.y.11| Int) (|.y.12| Int) (|main@%shadow.mem.0_0_5| (Array Int Int)) (|main@%largest.0.i_0_3| Int) (|main@%x.0.i_0_1| Int) (|main@%tmp2.i_0_5| Int) (|.loc.13| Bool) (|.loc.14| Bool) (|.loc.15| Bool) (|main@%tmp37.i_0| Int) (|main@%tmp32.i_0| Int) (|main@bb35.i_0| Bool) (|main@bb27.i_0| Bool) (|main@bb23.i_0_0| Bool) (|main@%tmp34.i_0| Bool) (|tuple(main@bb27.i_0, main@bb40.i_0)| Bool) (|main@%largest.1.i_0| Int) (|main@%tmp38.i_0| Int) (|main@%largest.1.i_1| Int) (|main@%tmp52.i_0_0| Int) (|.loc.25| Bool) (|.loc.23| Bool) (|.loc.24| Bool) (|.y.20| Int) (|.y.21| Int) (|.y.16| Int) (|.y.19| (Array Int Int)) (|.y.22| Int) (|.y.17| Int) (|.y.18| Int) (|.xtv.1| Int) (|.xtv.2| Int) (|.xtv.3| Bool) (|.xtv.4| Bool) (|.xtv.5| Bool) (|.xtv.6| Bool) (|.xtv.7| Bool) (|.xtv.8| Int) (|.xtv.9| Int) (|.xtv.10| Int) (|.xtv.11| Int)) (=> (and (state |main@%tmp8.i_0_5| |.y.11| |.y.12| |main@%shadow.mem.0_0_5| |main@%largest.0.i_0_3| |main@%x.0.i_0_1| |main@%tmp2.i_0_5| |.loc.13| |.loc.14| |.loc.15| |main@%tmp37.i_0| |main@%tmp32.i_0| |main@bb35.i_0| |main@bb27.i_0| |main@bb23.i_0_0| |main@%tmp34.i_0| |tuple(main@bb27.i_0, main@bb40.i_0)| |main@%largest.1.i_0| |main@%tmp38.i_0| |main@%largest.1.i_1| |main@%tmp52.i_0_0|) (let ((.def_31 (not .loc.13))) (let ((.def_32 (not .loc.14))) (let ((.def_36 (select main@%shadow.mem.0_0_5 main@%tmp52.i_0_0))) (let ((.def_37 (<= .def_36 main@%largest.0.i_0_3))) (let ((.def_51 (<= main@%tmp8.i_0_5 0))) (let ((.def_52 (or (not (<= main@%tmp52.i_0_0 0)) .def_51))) (let ((.def_54 (not .def_51))) (let ((.def_55 (and (and (and (not (<= main@%tmp2.i_0_5 main@%x.0.i_0_1)) (= (+ main@%tmp8.i_0_5 (+ main@%x.0.i_0_1 (* (- 1) main@%tmp52.i_0_0))) 0)) .def_52) .def_54))) (let ((.def_61 (not .loc.23))) (let ((.def_64 (not .loc.24))) (let ((.def_71 (not .loc.25))) (let ((.def_75 (<= main@%tmp2.i_0_5 main@%largest.0.i_0_3))) (let ((.def_78 (= main@%tmp8.i_0_5 .y.16))) (let ((.def_81 (= main@%shadow.mem.0_0_5 .y.19))) (let ((.def_85 (= main@%tmp2.i_0_5 .y.22))) (let ((.def_100 (= main@%largest.0.i_0_3 .y.20))) (let ((.def_116 (<= main@%largest.0.i_0_3 .y.12))) (let ((.def_121 (and main@bb27.i_0 main@bb23.i_0_0))) (let ((.def_128 (not main@bb27.i_0))) (let ((.def_142 (not main@bb35.i_0))) (let ((.def_153 (and main@bb27.i_0 |tuple(main@bb27.i_0, main@bb40.i_0)|))) (let ((.def_154 (not .def_153))) (let ((.def_170 (and main@bb35.i_0 main@bb27.i_0))) (let ((.def_228 (<= .y.11 0))) (and (not .loc.15) (or (or (or (or (and .loc.14 (or (or (and (and (and (and .loc.13 (and (not .def_37) .def_55)) .loc.25) .def_61) .def_64) (and (and (= main@%x.0.i_0_1 .y.20) (and (and (and (and (= .y.21 0) (and .def_31 (and (and .loc.23 .loc.24) .def_71))) .def_75) .def_78) .def_81)) .def_85)) (and (and (= (+ main@%x.0.i_0_1 (* (- 1) .y.21)) (- 1)) (and .def_85 (and .def_81 (and .def_78 (and .def_71 (and .loc.24 (and .loc.23 (and .loc.13 (and .def_37 .def_55))))))))) .def_100))) (and (= main@%largest.0.i_0_3 .y.22) (and (= .y.11 .y.16) (and (and (= .y.20 1) (and (= .y.21 (select main@%shadow.mem.0_0_5 .y.11)) (and .def_32 (and .def_81 (and .def_71 (and .def_61 (and .loc.13 .loc.24))))))) .def_116)))) (and (or (not .def_121) (not .def_75)) (and (or (= (+ main@%tmp8.i_0_5 (+ main@%largest.0.i_0_3 (* (- 1) main@%tmp52.i_0_0))) 0) .def_128) (and (or .def_52 .def_128) (and (or .def_54 .def_128) (and (or .def_128 (= main@%tmp32.i_0 .def_36)) (and (or .def_128 (= main@%tmp34.i_0 (not (<= main@%tmp32.i_0 main@%x.0.i_0_1)))) (and (or (= (+ main@%tmp8.i_0_5 (+ main@%largest.0.i_0_3 (* (- 1) main@%tmp37.i_0))) 0) .def_142) (and (or .def_142 (or .def_51 (not (<= main@%tmp37.i_0 0)))) (and (or .def_54 .def_142) (and (or .def_142 (= main@%tmp38.i_0 (select main@%shadow.mem.0_0_5 main@%tmp37.i_0))) (and (or (= main@%x.0.i_0_1 main@%largest.1.i_1) .def_154) (and (or .def_142 (= main@%largest.1.i_0 .y.21)) (and (= (+ main@%largest.0.i_0_3 (* (- 1) .y.20)) (- 1)) (and (or .def_154 (= main@%largest.1.i_1 .y.21)) (and .def_85 (and .def_81 (and .def_78 (and .def_31 (and .def_71 (and .def_61 (and .loc.24 (and .loc.14 (and (or main@bb35.i_0 .def_153) (and (or .def_142 (= main@%largest.1.i_0 main@%tmp38.i_0)) (and (or .def_154 (not main@%tmp34.i_0)) (and (or main@bb27.i_0 (not |tuple(main@bb27.i_0, main@bb40.i_0)|)) (and (or main@%tmp34.i_0 (not .def_170)) (and (or .def_121 .def_128) (or .def_142 .def_170)))))))))))))))))))))))))))))) (and (not (<= .y.20 0)) (and (not (<= .y.17 0)) (and (= .y.18 0) (and .def_32 (and .def_78 (and .def_31 (and .def_71 (and .loc.23 .def_64))))))))) (and (= .y.11 .y.17) (and (not .def_116) (and (= (+ .y.11 (+ .y.12 (* (- 1) main@%tmp32.i_0))) 0) (and (or (not (<= main@%tmp32.i_0 0)) .def_228) (and (not .def_228) (and (= .y.19 (store main@%shadow.mem.0_0_5 main@%tmp32.i_0 main@%tmp37.i_0)) (and (= (+ .y.12 (* (- 1) .y.18)) (- 1)) (and .def_32 (and .def_100 (and .def_78 (and .def_71 (and .def_64 (and .loc.13 .loc.23)))))))))))))))))))))))))))))))))))))))) (state |.y.16| |.y.17| |.y.18| |.y.19| |.y.20| |.y.21| |.y.22| |.loc.23| |.loc.24| |.loc.25| |.xtv.1| |.xtv.2| |.xtv.3| |.xtv.4| |.xtv.5| |.xtv.6| |.xtv.7| |.xtv.8| |.xtv.9| |.xtv.10| |.xtv.11|))))
(assert (forall ((|main@%tmp8.i_0_5| Int) (|.y.11| Int) (|.y.12| Int) (|main@%shadow.mem.0_0_5| (Array Int Int)) (|main@%largest.0.i_0_3| Int) (|main@%x.0.i_0_1| Int) (|main@%tmp2.i_0_5| Int) (|.loc.13| Bool) (|.loc.14| Bool) (|.loc.15| Bool) (|main@%tmp37.i_0| Int) (|main@%tmp32.i_0| Int) (|main@bb35.i_0| Bool) (|main@bb27.i_0| Bool) (|main@bb23.i_0_0| Bool) (|main@%tmp34.i_0| Bool) (|tuple(main@bb27.i_0, main@bb40.i_0)| Bool) (|main@%largest.1.i_0| Int) (|main@%tmp38.i_0| Int) (|main@%largest.1.i_1| Int) (|main@%tmp52.i_0_0| Int) (|.loc.25| Bool) (|.loc.23| Bool) (|.loc.24| Bool) (|.y.20| Int) (|.y.21| Int) (|.y.16| Int) (|.y.19| (Array Int Int)) (|.y.22| Int) (|.y.17| Int) (|.y.18| Int) (|.xtv.1| Int) (|.xtv.2| Int) (|.xtv.3| Bool) (|.xtv.4| Bool) (|.xtv.5| Bool) (|.xtv.6| Bool) (|.xtv.7| Bool) (|.xtv.8| Int) (|.xtv.9| Int) (|.xtv.10| Int) (|.xtv.11| Int)) (=> (state |main@%tmp8.i_0_5| |.y.11| |.y.12| |main@%shadow.mem.0_0_5| |main@%largest.0.i_0_3| |main@%x.0.i_0_1| |main@%tmp2.i_0_5| |.loc.13| |.loc.14| |.loc.15| |main@%tmp37.i_0| |main@%tmp32.i_0| |main@bb35.i_0| |main@bb27.i_0| |main@bb23.i_0_0| |main@%tmp34.i_0| |tuple(main@bb27.i_0, main@bb40.i_0)| |main@%largest.1.i_0| |main@%tmp38.i_0| |main@%largest.1.i_1| |main@%tmp52.i_0_0|) (not (and .loc.15 (and (not .loc.13) (not .loc.14)))))))
(check-sat)
